db/data/1954818201216411044118361250292265026155.z3.out
sat
-------------------
645.821828638
